c "199041.clq"
p edge 199 2928
e 1 17
e 1 18
e 1 19
e 1 20
e 1 21
e 1 22
e 1 23
e 1 30
e 1 31
e 1 32
e 1 33
e 1 36
e 1 44
e 1 49
e 1 56
e 1 58
e 1 60
e 1 61
e 1 74
e 1 75
e 1 76
e 1 88
e 1 91
e 1 107
e 1 108
e 1 112
e 1 118
e 1 132
e 1 138
e 1 148
e 1 149
e 1 155
e 1 156
e 1 167
e 1 172
e 1 191
e 1 198
e 2 17
e 2 18
e 2 19
e 2 20
e 2 22
e 2 23
e 2 24
e 2 25
e 2 29
e 2 30
e 2 31
e 2 32
e 2 33
e 2 35
e 2 37
e 2 38
e 2 43
e 2 47
e 2 48
e 2 53
e 2 58
e 2 61
e 2 75
e 2 76
e 2 78
e 2 80
e 2 87
e 2 92
e 2 127
e 2 129
e 2 141
e 2 152
e 3 17
e 3 18
e 3 19
e 3 20
e 3 21
e 3 24
e 3 25
e 3 28
e 3 32
e 3 33
e 3 36
e 3 37
e 3 40
e 3 41
e 3 47
e 3 51
e 3 54
e 3 55
e 3 56
e 3 61
e 3 65
e 3 67
e 3 70
e 3 71
e 3 75
e 3 76
e 3 77
e 3 80
e 3 81
e 3 82
e 3 83
e 3 85
e 3 86
e 3 88
e 3 90
e 3 91
e 3 97
e 3 101
e 3 103
e 3 109
e 3 120
e 3 121
e 3 125
e 3 127
e 3 128
e 3 131
e 3 137
e 3 138
e 3 144
e 3 145
e 3 153
e 3 165
e 3 178
e 3 195
e 4 17
e 4 18
e 4 19
e 4 20
e 4 21
e 4 23
e 4 24
e 4 26
e 4 28
e 4 30
e 4 34
e 4 35
e 4 39
e 4 41
e 4 42
e 4 44
e 4 52
e 4 62
e 4 66
e 4 72
e 4 80
e 4 89
e 4 96
e 4 103
e 4 106
e 4 116
e 4 117
e 4 121
e 4 133
e 4 141
e 4 143
e 4 155
e 4 161
e 4 162
e 4 170
e 4 177
e 4 185
e 4 189
e 4 193
e 4 197
e 5 17
e 5 18
e 5 19
e 5 20
e 5 21
e 5 22
e 5 23
e 5 24
e 5 25
e 5 27
e 5 31
e 5 33
e 5 34
e 5 38
e 5 45
e 5 46
e 5 49
e 5 52
e 5 56
e 5 59
e 5 66
e 5 69
e 5 74
e 5 80
e 5 81
e 5 82
e 5 84
e 5 100
e 5 101
e 5 107
e 5 116
e 5 119
e 5 129
e 5 130
e 5 131
e 5 132
e 5 138
e 5 145
e 5 152
e 5 164
e 5 167
e 5 171
e 5 174
e 5 175
e 5 177
e 5 180
e 5 189
e 6 17
e 6 18
e 6 19
e 6 20
e 6 21
e 6 23
e 6 28
e 6 30
e 6 38
e 6 39
e 6 42
e 6 46
e 6 47
e 6 63
e 6 66
e 6 72
e 6 81
e 6 87
e 6 95
e 6 97
e 6 106
e 6 111
e 6 117
e 6 122
e 6 143
e 6 159
e 6 160
e 6 166
e 6 169
e 6 176
e 6 180
e 6 187
e 6 193
e 7 17
e 7 18
e 7 19
e 7 20
e 7 21
e 7 22
e 7 23
e 7 24
e 7 25
e 7 26
e 7 27
e 7 30
e 7 31
e 7 32
e 7 34
e 7 40
e 7 42
e 7 46
e 7 49
e 7 54
e 7 55
e 7 57
e 7 63
e 7 64
e 7 66
e 7 72
e 7 78
e 7 80
e 7 103
e 7 111
e 7 113
e 7 117
e 7 124
e 7 125
e 7 131
e 7 132
e 7 133
e 7 134
e 7 145
e 7 147
e 7 148
e 7 156
e 7 165
e 7 170
e 7 175
e 7 178
e 7 180
e 7 185
e 7 188
e 7 190
e 7 196
e 8 17
e 8 18
e 8 19
e 8 20
e 8 21
e 8 22
e 8 24
e 8 25
e 8 26
e 8 27
e 8 29
e 8 31
e 8 32
e 8 33
e 8 37
e 8 44
e 8 45
e 8 46
e 8 56
e 8 60
e 8 65
e 8 66
e 8 68
e 8 77
e 8 84
e 8 90
e 8 91
e 8 93
e 8 99
e 8 102
e 8 108
e 8 113
e 8 124
e 8 126
e 8 127
e 8 135
e 8 139
e 8 147
e 8 148
e 8 152
e 8 155
e 8 163
e 8 166
e 8 180
e 8 191
e 8 196
e 9 17
e 9 18
e 9 19
e 9 20
e 9 22
e 9 23
e 9 25
e 9 27
e 9 28
e 9 40
e 9 41
e 9 45
e 9 46
e 9 48
e 9 49
e 9 63
e 9 75
e 9 80
e 9 83
e 9 85
e 9 106
e 9 108
e 9 133
e 9 137
e 9 151
e 9 158
e 9 186
e 10 17
e 10 18
e 10 19
e 10 21
e 10 23
e 10 24
e 10 25
e 10 28
e 10 30
e 10 40
e 10 43
e 10 58
e 10 60
e 10 71
e 10 75
e 10 77
e 10 94
e 10 101
e 10 104
e 10 111
e 10 115
e 10 122
e 10 125
e 10 134
e 10 140
e 10 144
e 10 146
e 10 147
e 10 157
e 10 163
e 10 164
e 10 179
e 10 184
e 11 17
e 11 22
e 11 26
e 11 27
e 11 34
e 11 43
e 11 46
e 11 59
e 11 82
e 11 92
e 11 105
e 11 108
e 11 152
e 11 155
e 11 168
e 11 169
e 11 195
e 12 17
e 12 18
e 12 20
e 12 21
e 12 22
e 12 32
e 12 33
e 12 35
e 12 41
e 12 42
e 12 43
e 12 47
e 12 68
e 12 69
e 12 74
e 12 77
e 12 80
e 12 86
e 12 94
e 12 96
e 12 101
e 12 108
e 12 125
e 12 132
e 12 135
e 12 139
e 12 141
e 12 155
e 12 167
e 12 182
e 13 17
e 13 18
e 13 19
e 13 20
e 13 21
e 13 23
e 13 24
e 13 27
e 13 30
e 13 33
e 13 38
e 13 41
e 13 45
e 13 48
e 13 51
e 13 53
e 13 54
e 13 59
e 13 60
e 13 65
e 13 66
e 13 69
e 13 73
e 13 93
e 13 98
e 13 101
e 13 103
e 13 105
e 13 106
e 13 108
e 13 109
e 13 110
e 13 111
e 13 121
e 13 128
e 13 139
e 13 143
e 13 144
e 13 160
e 13 164
e 13 165
e 13 166
e 13 169
e 13 184
e 13 191
e 13 195
e 14 17
e 14 18
e 14 19
e 14 20
e 14 21
e 14 22
e 14 23
e 14 24
e 14 25
e 14 26
e 14 29
e 14 33
e 14 34
e 14 37
e 14 44
e 14 50
e 14 52
e 14 55
e 14 57
e 14 59
e 14 64
e 14 65
e 14 70
e 14 71
e 14 73
e 14 76
e 14 77
e 14 79
e 14 81
e 14 82
e 14 91
e 14 99
e 14 103
e 14 107
e 14 108
e 14 117
e 14 127
e 14 129
e 14 136
e 14 153
e 14 154
e 14 170
e 14 175
e 14 177
e 14 182
e 14 188
e 15 17
e 15 18
e 15 19
e 15 20
e 15 22
e 15 24
e 15 25
e 15 26
e 15 27
e 15 28
e 15 29
e 15 32
e 15 35
e 15 38
e 15 39
e 15 40
e 15 49
e 15 53
e 15 57
e 15 58
e 15 68
e 15 76
e 15 84
e 15 87
e 15 90
e 15 96
e 15 102
e 15 103
e 15 112
e 15 116
e 15 121
e 15 127
e 15 140
e 15 148
e 15 168
e 15 194
e 16 17
e 16 18
e 16 19
e 16 21
e 16 22
e 16 26
e 16 27
e 16 30
e 16 39
e 16 44
e 16 45
e 16 52
e 16 54
e 16 57
e 16 70
e 16 76
e 16 81
e 16 84
e 16 87
e 16 99
e 16 103
e 16 105
e 16 108
e 16 109
e 16 113
e 16 118
e 16 130
e 16 150
e 16 156
e 16 195
e 16 199
e 17 18
e 17 19
e 17 20
e 17 21
e 17 22
e 17 23
e 17 24
e 17 25
e 17 26
e 17 27
e 17 28
e 17 29
e 17 30
e 17 31
e 17 34
e 17 36
e 17 37
e 17 39
e 17 41
e 17 43
e 17 45
e 17 48
e 17 50
e 17 54
e 17 56
e 17 58
e 17 60
e 17 61
e 17 64
e 17 66
e 17 67
e 17 73
e 17 81
e 17 83
e 17 86
e 17 87
e 17 93
e 17 97
e 17 100
e 17 106
e 17 114
e 17 122
e 17 123
e 17 127
e 17 128
e 17 137
e 17 146
e 17 151
e 17 152
e 17 153
e 17 154
e 17 161
e 17 162
e 17 164
e 17 166
e 17 173
e 17 181
e 17 182
e 17 187
e 17 194
e 18 19
e 18 20
e 18 21
e 18 22
e 18 23
e 18 24
e 18 25
e 18 26
e 18 27
e 18 28
e 18 29
e 18 30
e 18 31
e 18 32
e 18 34
e 18 35
e 18 36
e 18 37
e 18 38
e 18 39
e 18 40
e 18 41
e 18 42
e 18 44
e 18 46
e 18 47
e 18 52
e 18 56
e 18 58
e 18 60
e 18 62
e 18 63
e 18 64
e 18 65
e 18 66
e 18 68
e 18 82
e 18 88
e 18 93
e 18 95
e 18 99
e 18 100
e 18 103
e 18 104
e 18 106
e 18 108
e 18 119
e 18 121
e 18 123
e 18 124
e 18 129
e 18 133
e 18 135
e 18 136
e 18 142
e 18 147
e 18 151
e 18 176
e 18 184
e 18 188
e 18 193
e 18 198
e 19 20
e 19 21
e 19 22
e 19 23
e 19 24
e 19 26
e 19 28
e 19 29
e 19 31
e 19 33
e 19 35
e 19 36
e 19 37
e 19 38
e 19 40
e 19 42
e 19 43
e 19 44
e 19 45
e 19 49
e 19 50
e 19 53
e 19 55
e 19 58
e 19 64
e 19 70
e 19 71
e 19 72
e 19 73
e 19 77
e 19 79
e 19 81
e 19 86
e 19 90
e 19 93
e 19 100
e 19 110
e 19 115
e 19 116
e 19 117
e 19 118
e 19 121
e 19 125
e 19 127
e 19 128
e 19 131
e 19 133
e 19 135
e 19 140
e 19 144
e 19 146
e 19 149
e 19 157
e 19 160
e 19 175
e 19 176
e 19 185
e 19 187
e 19 191
e 20 21
e 20 22
e 20 23
e 20 24
e 20 25
e 20 26
e 20 27
e 20 28
e 20 29
e 20 30
e 20 31
e 20 32
e 20 33
e 20 34
e 20 36
e 20 37
e 20 40
e 20 41
e 20 45
e 20 51
e 20 52
e 20 55
e 20 56
e 20 61
e 20 68
e 20 69
e 20 71
e 20 73
e 20 78
e 20 80
e 20 84
e 20 88
e 20 89
e 20 90
e 20 92
e 20 96
e 20 104
e 20 107
e 20 115
e 20 118
e 20 119
e 20 127
e 20 128
e 20 130
e 20 131
e 20 136
e 20 138
e 20 141
e 20 149
e 20 153
e 20 173
e 20 175
e 20 177
e 20 185
e 20 188
e 20 194
e 20 195
e 20 196
e 21 22
e 21 23
e 21 25
e 21 26
e 21 28
e 21 29
e 21 30
e 21 31
e 21 32
e 21 33
e 21 34
e 21 35
e 21 36
e 21 38
e 21 39
e 21 40
e 21 41
e 21 42
e 21 45
e 21 47
e 21 55
e 21 56
e 21 60
e 21 66
e 21 68
e 21 69
e 21 73
e 21 76
e 21 79
e 21 82
e 21 86
e 21 91
e 21 94
e 21 100
e 21 102
e 21 110
e 21 115
e 21 117
e 21 121
e 21 128
e 21 131
e 21 141
e 21 143
e 21 153
e 21 158
e 21 160
e 21 161
e 21 163
e 21 165
e 21 170
e 21 177
e 21 181
e 21 191
e 21 196
e 21 199
e 22 23
e 22 24
e 22 25
e 22 26
e 22 27
e 22 28
e 22 29
e 22 30
e 22 35
e 22 37
e 22 38
e 22 39
e 22 43
e 22 44
e 22 48
e 22 53
e 22 55
e 22 56
e 22 58
e 22 60
e 22 69
e 22 76
e 22 84
e 22 86
e 22 91
e 22 98
e 22 99
e 22 102
e 22 105
e 22 112
e 22 113
e 22 119
e 22 120
e 22 122
e 22 129
e 22 131
e 22 132
e 22 137
e 22 141
e 22 143
e 22 146
e 22 148
e 22 161
e 22 164
e 22 168
e 22 176
e 22 187
e 22 189
e 22 191
e 23 24
e 23 25
e 23 26
e 23 27
e 23 28
e 23 29
e 23 30
e 23 33
e 23 34
e 23 35
e 23 36
e 23 37
e 23 39
e 23 40
e 23 45
e 23 46
e 23 48
e 23 49
e 23 52
e 23 53
e 23 54
e 23 55
e 23 57
e 23 58
e 23 62
e 23 65
e 23 67
e 23 68
e 23 73
e 23 75
e 23 79
e 23 84
e 23 87
e 23 88
e 23 93
e 23 100
e 23 106
e 23 107
e 23 108
e 23 109
e 23 110
e 23 112
e 23 120
e 23 126
e 23 128
e 23 132
e 23 134
e 23 143
e 23 150
e 23 152
e 23 153
e 23 156
e 23 158
e 23 162
e 23 164
e 23 165
e 23 172
e 23 174
e 23 175
e 23 178
e 23 185
e 23 186
e 23 187
e 23 191
e 23 195
e 23 196
e 24 25
e 24 26
e 24 27
e 24 28
e 24 29
e 24 31
e 24 34
e 24 35
e 24 36
e 24 38
e 24 40
e 24 43
e 24 44
e 24 46
e 24 48
e 24 49
e 24 50
e 24 51
e 24 53
e 24 54
e 24 57
e 24 59
e 24 63
e 24 64
e 24 65
e 24 69
e 24 70
e 24 71
e 24 78
e 24 81
e 24 83
e 24 87
e 24 89
e 24 90
e 24 91
e 24 93
e 24 95
e 24 96
e 24 99
e 24 102
e 24 106
e 24 107
e 24 109
e 24 112
e 24 114
e 24 122
e 24 123
e 24 124
e 24 129
e 24 134
e 24 143
e 24 144
e 24 148
e 24 150
e 24 152
e 24 157
e 24 163
e 24 169
e 24 179
e 24 183
e 24 185
e 24 194
e 24 197
e 24 199
e 25 26
e 25 27
e 25 29
e 25 30
e 25 32
e 25 34
e 25 36
e 25 37
e 25 42
e 25 46
e 25 47
e 25 49
e 25 50
e 25 51
e 25 53
e 25 55
e 25 57
e 25 59
e 25 64
e 25 66
e 25 68
e 25 71
e 25 74
e 25 75
e 25 76
e 25 78
e 25 84
e 25 85
e 25 94
e 25 96
e 25 97
e 25 98
e 25 101
e 25 105
e 25 110
e 25 114
e 25 116
e 25 117
e 25 123
e 25 139
e 25 143
e 25 149
e 25 158
e 25 162
e 25 163
e 25 168
e 26 27
e 26 28
e 26 29
e 26 30
e 26 31
e 26 32
e 26 33
e 26 35
e 26 38
e 26 39
e 26 42
e 26 43
e 26 45
e 26 47
e 26 48
e 26 52
e 26 53
e 26 54
e 26 60
e 26 61
e 26 62
e 26 65
e 26 66
e 26 67
e 26 77
e 26 80
e 26 83
e 26 85
e 26 86
e 26 88
e 26 89
e 26 92
e 26 97
e 26 99
e 26 101
e 26 105
e 26 109
e 26 113
e 26 116
e 26 118
e 26 121
e 26 124
e 26 129
e 26 132
e 26 134
e 26 136
e 26 137
e 26 140
e 26 141
e 26 144
e 26 163
e 26 168
e 26 169
e 26 181
e 26 186
e 26 191
e 26 195
e 27 28
e 27 29
e 27 31
e 27 32
e 27 34
e 27 35
e 27 38
e 27 39
e 27 42
e 27 46
e 27 48
e 27 50
e 27 52
e 27 53
e 27 56
e 27 59
e 27 64
e 27 65
e 27 70
e 27 75
e 27 78
e 27 79
e 27 83
e 27 85
e 27 86
e 27 89
e 27 100
e 27 101
e 27 109
e 27 120
e 27 129
e 27 132
e 27 133
e 27 134
e 27 137
e 27 139
e 27 141
e 27 163
e 27 171
e 27 178
e 27 182
e 27 185
e 27 186
e 27 190
e 27 194
e 28 29
e 28 31
e 28 36
e 28 38
e 28 39
e 28 40
e 28 41
e 28 44
e 28 47
e 28 48
e 28 49
e 28 50
e 28 51
e 28 53
e 28 56
e 28 60
e 28 62
e 28 63
e 28 65
e 28 71
e 28 74
e 28 76
e 28 78
e 28 79
e 28 80
e 28 82
e 28 93
e 28 96
e 28 99
e 28 105
e 28 109
e 28 111
e 28 112
e 28 118
e 28 120
e 28 122
e 28 129
e 28 133
e 28 135
e 28 136
e 28 140
e 28 143
e 28 145
e 28 147
e 28 152
e 28 154
e 28 157
e 28 158
e 28 159
e 28 166
e 28 168
e 28 169
e 28 174
e 28 176
e 28 181
e 28 189
e 28 190
e 28 197
e 29 31
e 29 32
e 29 33
e 29 35
e 29 36
e 29 41
e 29 42
e 29 47
e 29 48
e 29 55
e 29 57
e 29 60
e 29 72
e 29 73
e 29 74
e 29 76
e 29 79
e 29 80
e 29 87
e 29 92
e 29 93
e 29 94
e 29 96
e 29 102
e 29 104
e 29 113
e 29 114
e 29 115
e 29 126
e 29 135
e 29 145
e 29 148
e 29 149
e 29 151
e 29 154
e 29 160
e 29 161
e 29 162
e 29 168
e 29 179
e 29 195
e 29 197
e 30 31
e 30 32
e 30 33
e 30 34
e 30 35
e 30 36
e 30 39
e 30 43
e 30 47
e 30 49
e 30 50
e 30 51
e 30 53
e 30 54
e 30 55
e 30 57
e 30 58
e 30 59
e 30 62
e 30 64
e 30 66
e 30 69
e 30 73
e 30 75
e 30 77
e 30 78
e 30 80
e 30 84
e 30 85
e 30 86
e 30 87
e 30 90
e 30 99
e 30 106
e 30 110
e 30 111
e 30 113
e 30 123
e 30 124
e 30 127
e 30 130
e 30 141
e 30 142
e 30 147
e 30 149
e 30 156
e 30 158
e 30 161
e 30 163
e 30 167
e 30 173
e 30 177
e 30 178
e 30 193
e 31 32
e 31 33
e 31 34
e 31 35
e 31 36
e 31 37
e 31 38
e 31 41
e 31 43
e 31 45
e 31 46
e 31 47
e 31 48
e 31 49
e 31 50
e 31 55
e 31 56
e 31 59
e 31 62
e 31 63
e 31 65
e 31 68
e 31 70
e 31 71
e 31 75
e 31 78
e 31 80
e 31 82
e 31 84
e 31 88
e 31 91
e 31 95
e 31 96
e 31 98
e 31 100
e 31 103
e 31 107
e 31 112
e 31 116
e 31 119
e 31 124
e 31 128
e 31 140
e 31 149
e 31 150
e 31 151
e 31 155
e 31 158
e 31 163
e 31 170
e 31 175
e 31 177
e 31 184
e 31 194
e 31 199
e 32 34
e 32 35
e 32 36
e 32 37
e 32 40
e 32 42
e 32 44
e 32 49
e 32 52
e 32 54
e 32 57
e 32 60
e 32 62
e 32 67
e 32 69
e 32 73
e 32 74
e 32 84
e 32 88
e 32 90
e 32 92
e 32 116
e 32 117
e 32 123
e 32 125
e 32 128
e 32 134
e 32 141
e 32 142
e 32 143
e 32 155
e 32 157
e 32 159
e 32 161
e 32 169
e 32 177
e 32 182
e 32 187
e 32 190
e 32 198
e 33 38
e 33 39
e 33 49
e 33 50
e 33 51
e 33 55
e 33 64
e 33 67
e 33 68
e 33 86
e 33 88
e 33 89
e 33 90
e 33 92
e 33 102
e 33 109
e 33 111
e 33 112
e 33 119
e 33 124
e 33 127
e 33 131
e 33 133
e 33 138
e 33 140
e 33 153
e 33 155
e 33 157
e 33 158
e 33 159
e 33 176
e 33 183
e 33 187
e 34 37
e 34 39
e 34 41
e 34 42
e 34 44
e 34 45
e 34 50
e 34 51
e 34 52
e 34 53
e 34 55
e 34 61
e 34 62
e 34 65
e 34 71
e 34 79
e 34 83
e 34 88
e 34 90
e 34 98
e 34 107
e 34 124
e 34 142
e 34 150
e 34 159
e 34 162
e 34 175
e 34 180
e 34 183
e 34 184
e 34 187
e 34 189
e 34 196
e 35 36
e 35 37
e 35 41
e 35 46
e 35 47
e 35 48
e 35 50
e 35 53
e 35 54
e 35 56
e 35 58
e 35 60
e 35 64
e 35 67
e 35 74
e 35 79
e 35 84
e 35 87
e 35 92
e 35 93
e 35 94
e 35 97
e 35 102
e 35 115
e 35 118
e 35 120
e 35 122
e 35 137
e 35 142
e 35 144
e 35 191
e 35 192
e 35 198
e 36 37
e 36 40
e 36 41
e 36 43
e 36 44
e 36 45
e 36 46
e 36 50
e 36 52
e 36 54
e 36 59
e 36 67
e 36 69
e 36 70
e 36 72
e 36 74
e 36 75
e 36 76
e 36 95
e 36 101
e 36 109
e 36 115
e 36 118
e 36 125
e 36 126
e 36 128
e 36 129
e 36 131
e 36 135
e 36 142
e 36 160
e 36 164
e 36 175
e 36 184
e 36 186
e 36 187
e 36 192
e 36 195
e 36 198
e 36 199
e 37 38
e 37 39
e 37 42
e 37 43
e 37 46
e 37 51
e 37 54
e 37 59
e 37 77
e 37 94
e 37 100
e 37 102
e 37 119
e 37 142
e 37 150
e 37 151
e 37 156
e 37 173
e 37 180
e 37 184
e 38 40
e 38 41
e 38 42
e 38 43
e 38 44
e 38 45
e 38 48
e 38 50
e 38 51
e 38 60
e 38 63
e 38 64
e 38 66
e 38 67
e 38 68
e 38 78
e 38 80
e 38 82
e 38 83
e 38 85
e 38 87
e 38 95
e 38 97
e 38 98
e 38 101
e 38 102
e 38 104
e 38 111
e 38 126
e 38 137
e 38 140
e 38 144
e 38 158
e 38 171
e 38 174
e 38 175
e 38 179
e 38 183
e 38 193
e 38 197
e 38 198
e 39 40
e 39 42
e 39 43
e 39 51
e 39 56
e 39 58
e 39 60
e 39 63
e 39 65
e 39 67
e 39 73
e 39 76
e 39 77
e 39 78
e 39 81
e 39 83
e 39 85
e 39 90
e 39 95
e 39 103
e 39 104
e 39 107
e 39 111
e 39 119
e 39 124
e 39 136
e 39 137
e 39 138
e 39 139
e 39 140
e 39 141
e 39 146
e 39 153
e 39 154
e 39 163
e 39 165
e 39 166
e 39 177
e 39 181
e 39 186
e 39 192
e 40 45
e 40 51
e 40 54
e 40 57
e 40 60
e 40 61
e 40 69
e 40 70
e 40 76
e 40 81
e 40 84
e 40 86
e 40 93
e 40 94
e 40 98
e 40 104
e 40 115
e 40 122
e 40 128
e 40 130
e 40 132
e 40 136
e 40 147
e 40 156
e 40 164
e 40 171
e 40 177
e 40 192
e 41 44
e 41 47
e 41 50
e 41 59
e 41 61
e 41 62
e 41 67
e 41 68
e 41 78
e 41 80
e 41 81
e 41 84
e 41 89
e 41 95
e 41 96
e 41 97
e 41 105
e 41 116
e 41 120
e 41 125
e 41 141
e 41 161
e 41 191
e 42 43
e 42 44
e 42 53
e 42 54
e 42 58
e 42 59
e 42 61
e 42 63
e 42 68
e 42 79
e 42 85
e 42 87
e 42 103
e 42 105
e 42 106
e 42 108
e 42 111
e 42 116
e 42 120
e 42 126
e 42 131
e 42 134
e 42 146
e 42 151
e 42 160
e 42 166
e 42 172
e 42 193
e 42 194
e 42 196
e 42 199
e 43 47
e 43 50
e 43 57
e 43 59
e 43 64
e 43 67
e 43 68
e 43 72
e 43 74
e 43 94
e 43 104
e 43 107
e 43 112
e 43 130
e 43 135
e 43 140
e 43 145
e 43 154
e 43 162
e 43 184
e 43 189
e 43 197
e 44 46
e 44 47
e 44 49
e 44 52
e 44 59
e 44 70
e 44 77
e 44 92
e 44 95
e 44 120
e 44 121
e 44 131
e 44 152
e 44 158
e 44 167
e 44 171
e 44 188
e 45 48
e 45 52
e 45 53
e 45 55
e 45 57
e 45 64
e 45 66
e 45 69
e 45 71
e 45 73
e 45 79
e 45 82
e 45 83
e 45 88
e 45 90
e 45 92
e 45 93
e 45 96
e 45 104
e 45 110
e 45 112
e 45 114
e 45 117
e 45 119
e 45 126
e 45 127
e 45 130
e 45 142
e 45 145
e 45 146
e 45 150
e 45 152
e 45 156
e 45 158
e 45 172
e 45 173
e 45 174
e 45 176
e 45 189
e 45 190
e 46 57
e 46 58
e 46 61
e 46 66
e 46 70
e 46 73
e 46 85
e 46 89
e 46 100
e 46 103
e 46 110
e 46 125
e 46 130
e 46 137
e 46 143
e 46 155
e 46 163
e 46 166
e 46 167
e 47 48
e 47 49
e 47 51
e 47 56
e 47 57
e 47 59
e 47 61
e 47 66
e 47 69
e 47 73
e 47 78
e 47 79
e 47 80
e 47 91
e 47 104
e 47 113
e 47 114
e 47 118
e 47 130
e 47 133
e 47 136
e 47 143
e 47 148
e 47 149
e 47 153
e 47 169
e 47 180
e 47 182
e 47 185
e 48 51
e 48 52
e 48 63
e 48 77
e 48 78
e 48 89
e 48 95
e 48 97
e 48 98
e 48 101
e 48 102
e 48 119
e 48 140
e 48 144
e 48 165
e 48 170
e 48 171
e 48 181
e 48 184
e 48 187
e 48 192
e 48 197
e 49 61
e 49 62
e 49 67
e 49 72
e 49 74
e 49 75
e 49 79
e 49 86
e 49 88
e 49 91
e 49 111
e 49 115
e 49 119
e 49 126
e 49 131
e 49 133
e 49 137
e 49 140
e 49 165
e 49 166
e 49 183
e 49 194
e 49 199
e 50 51
e 50 58
e 50 61
e 50 62
e 50 63
e 50 75
e 50 77
e 50 78
e 50 101
e 50 111
e 50 112
e 50 123
e 50 134
e 50 136
e 50 149
e 50 150
e 50 151
e 50 185
e 50 192
e 50 193
e 50 195
e 51 52
e 51 55
e 51 62
e 51 63
e 51 72
e 51 74
e 51 75
e 51 83
e 51 95
e 51 108
e 51 122
e 51 138
e 51 157
e 51 161
e 51 174
e 51 193
e 51 194
e 51 195
e 51 198
e 52 54
e 52 62
e 52 64
e 52 67
e 52 72
e 52 82
e 52 85
e 52 86
e 52 99
e 52 106
e 52 117
e 52 145
e 52 149
e 52 150
e 52 171
e 53 62
e 53 69
e 53 71
e 53 91
e 53 93
e 53 99
e 53 101
e 53 117
e 53 118
e 53 133
e 53 151
e 53 189
e 54 62
e 54 63
e 54 65
e 54 68
e 54 69
e 54 81
e 54 91
e 54 97
e 54 98
e 54 107
e 54 110
e 54 136
e 54 138
e 54 141
e 54 150
e 54 161
e 54 179
e 54 186
e 54 191
e 55 56
e 55 57
e 55 70
e 55 72
e 55 73
e 55 104
e 55 121
e 55 122
e 55 126
e 55 138
e 55 139
e 55 157
e 55 165
e 55 170
e 55 171
e 55 179
e 55 182
e 55 193
e 56 58
e 56 69
e 56 72
e 56 74
e 56 83
e 56 86
e 56 92
e 56 95
e 56 97
e 56 99
e 56 101
e 56 103
e 56 110
e 56 118
e 56 120
e 56 133
e 56 138
e 56 146
e 56 148
e 56 159
e 56 161
e 56 171
e 56 176
e 57 75
e 57 91
e 57 98
e 57 104
e 57 110
e 57 111
e 57 167
e 57 178
e 58 63
e 58 68
e 58 72
e 58 73
e 58 77
e 58 94
e 58 114
e 58 116
e 58 117
e 58 123
e 58 135
e 58 137
e 58 159
e 58 173
e 58 178
e 58 182
e 59 61
e 59 64
e 59 82
e 59 86
e 59 88
e 59 89
e 59 95
e 59 105
e 59 107
e 59 111
e 59 138
e 59 150
e 59 152
e 59 172
e 59 176
e 59 180
e 59 194
e 60 61
e 60 70
e 60 71
e 60 79
e 60 81
e 60 82
e 60 87
e 60 91
e 60 98
e 60 104
e 60 106
e 60 113
e 60 116
e 60 126
e 60 131
e 60 133
e 60 137
e 60 149
e 60 163
e 60 164
e 60 178
e 60 192
e 60 193
e 60 195
e 61 71
e 61 85
e 61 86
e 61 87
e 61 92
e 61 94
e 61 99
e 61 115
e 61 123
e 61 126
e 61 128
e 61 140
e 61 150
e 61 155
e 61 157
e 61 159
e 61 161
e 61 168
e 61 172
e 61 173
e 61 188
e 62 63
e 62 65
e 62 67
e 62 72
e 62 76
e 62 89
e 62 90
e 62 107
e 62 114
e 62 115
e 62 118
e 62 129
e 62 148
e 62 154
e 62 164
e 62 168
e 62 169
e 62 192
e 63 65
e 63 70
e 63 71
e 63 79
e 63 92
e 63 105
e 63 106
e 63 108
e 63 121
e 63 135
e 63 147
e 63 159
e 63 173
e 63 176
e 63 185
e 64 67
e 64 82
e 64 94
e 64 105
e 64 107
e 64 110
e 64 113
e 64 119
e 64 120
e 64 129
e 64 130
e 64 163
e 64 172
e 65 70
e 65 94
e 65 109
e 65 117
e 65 120
e 65 144
e 65 181
e 66 70
e 66 72
e 66 89
e 66 92
e 66 96
e 66 123
e 66 125
e 66 127
e 66 152
e 66 181
e 67 79
e 67 82
e 67 128
e 67 137
e 67 139
e 68 74
e 68 76
e 68 94
e 68 103
e 68 121
e 68 152
e 68 165
e 68 168
e 68 170
e 68 171
e 69 71
e 69 84
e 69 85
e 69 96
e 69 99
e 69 100
e 69 102
e 69 117
e 69 123
e 69 124
e 69 135
e 69 136
e 69 143
e 69 160
e 69 186
e 70 74
e 70 81
e 70 84
e 70 125
e 70 126
e 70 133
e 70 145
e 71 72
e 71 75
e 71 78
e 71 83
e 71 90
e 71 108
e 71 112
e 71 114
e 71 120
e 71 139
e 71 153
e 71 161
e 71 164
e 71 176
e 71 179
e 71 181
e 71 183
e 71 186
e 72 74
e 72 87
e 72 91
e 72 93
e 72 95
e 72 97
e 72 103
e 72 105
e 72 132
e 72 145
e 72 148
e 72 151
e 72 152
e 72 154
e 72 157
e 72 160
e 72 166
e 72 182
e 72 199
e 73 82
e 73 89
e 73 100
e 73 102
e 73 112
e 73 125
e 73 135
e 73 152
e 73 165
e 73 177
e 73 186
e 73 193
e 74 77
e 74 81
e 74 83
e 74 109
e 74 118
e 74 120
e 74 121
e 74 124
e 74 125
e 74 127
e 74 130
e 74 138
e 74 156
e 74 184
e 74 188
e 74 190
e 74 195
e 75 77
e 75 88
e 75 89
e 75 115
e 75 116
e 75 147
e 75 159
e 75 162
e 75 175
e 75 192
e 76 81
e 76 92
e 76 97
e 76 98
e 76 99
e 76 100
e 76 106
e 76 108
e 76 116
e 76 118
e 76 126
e 76 133
e 76 146
e 76 147
e 76 156
e 76 166
e 76 180
e 76 194
e 77 83
e 77 85
e 77 100
e 77 126
e 77 139
e 77 160
e 77 169
e 77 181
e 77 182
e 77 194
e 78 97
e 78 129
e 78 141
e 78 143
e 78 147
e 78 160
e 78 167
e 79 85
e 79 110
e 79 138
e 79 160
e 79 164
e 79 172
e 79 196
e 79 198
e 80 83
e 80 87
e 80 89
e 80 101
e 80 122
e 80 139
e 80 156
e 80 174
e 80 175
e 80 196
e 81 85
e 81 94
e 81 98
e 81 101
e 81 110
e 81 114
e 81 116
e 81 120
e 81 153
e 81 163
e 81 165
e 81 169
e 81 188
e 81 195
e 82 92
e 82 93
e 82 96
e 82 98
e 82 121
e 82 125
e 82 126
e 82 131
e 82 132
e 82 140
e 82 144
e 82 147
e 82 170
e 82 174
e 82 187
e 82 188
e 83 100
e 83 113
e 83 132
e 83 138
e 83 142
e 83 145
e 83 154
e 84 97
e 84 110
e 84 138
e 84 139
e 84 144
e 84 146
e 84 147
e 84 149
e 84 159
e 84 194
e 85 93
e 85 96
e 85 100
e 85 114
e 85 134
e 85 150
e 85 153
e 85 158
e 85 167
e 85 170
e 85 176
e 85 190
e 86 88
e 86 90
e 86 95
e 86 109
e 86 121
e 86 122
e 86 129
e 86 133
e 86 145
e 86 151
e 86 180
e 86 182
e 86 190
e 87 88
e 87 89
e 87 90
e 87 104
e 87 105
e 87 113
e 87 117
e 87 125
e 87 130
e 87 146
e 87 166
e 87 169
e 87 191
e 88 94
e 88 134
e 88 150
e 88 165
e 88 171
e 88 186
e 89 91
e 89 95
e 89 97
e 89 130
e 89 138
e 89 167
e 89 174
e 89 196
e 90 98
e 90 105
e 90 146
e 90 168
e 90 173
e 90 179
e 90 182
e 91 108
e 91 112
e 91 128
e 91 130
e 91 146
e 91 199
e 92 104
e 92 111
e 92 123
e 92 124
e 92 126
e 92 129
e 92 155
e 92 180
e 93 98
e 93 99
e 93 113
e 93 136
e 93 139
e 93 151
e 93 162
e 93 163
e 93 174
e 93 178
e 93 199
e 94 106
e 94 123
e 94 135
e 94 143
e 94 144
e 95 96
e 95 102
e 95 119
e 95 154
e 95 157
e 95 162
e 96 116
e 96 122
e 96 134
e 96 173
e 96 179
e 96 196
e 97 107
e 97 111
e 97 152
e 97 159
e 97 169
e 97 181
e 97 187
e 97 198
e 98 110
e 98 112
e 98 118
e 98 123
e 98 128
e 98 132
e 98 135
e 98 146
e 98 151
e 98 156
e 98 159
e 98 165
e 98 167
e 98 172
e 98 179
e 98 185
e 99 102
e 99 105
e 99 109
e 99 122
e 99 132
e 99 147
e 99 149
e 99 155
e 99 156
e 99 176
e 99 186
e 100 102
e 100 103
e 100 114
e 100 171
e 101 109
e 101 112
e 101 134
e 101 173
e 101 177
e 101 192
e 102 104
e 102 107
e 102 136
e 102 155
e 102 158
e 102 173
e 102 184
e 103 106
e 103 109
e 103 115
e 103 120
e 103 129
e 103 136
e 103 156
e 103 181
e 103 187
e 103 190
e 103 197
e 104 123
e 104 130
e 105 114
e 105 127
e 105 140
e 105 151
e 105 162
e 105 188
e 106 114
e 106 115
e 106 117
e 106 122
e 106 130
e 106 153
e 106 155
e 106 171
e 106 172
e 106 176
e 106 180
e 106 185
e 107 113
e 107 114
e 107 149
e 107 160
e 107 165
e 107 173
e 107 179
e 107 183
e 107 189
e 107 190
e 108 114
e 108 154
e 108 156
e 108 168
e 108 179
e 109 124
e 109 134
e 109 151
e 109 153
e 109 183
e 109 193
e 109 198
e 110 113
e 110 119
e 110 124
e 110 143
e 110 147
e 110 148
e 110 154
e 110 174
e 110 189
e 110 190
e 111 113
e 111 135
e 111 142
e 111 162
e 111 167
e 111 172
e 111 183
e 111 187
e 111 196
e 112 115
e 112 123
e 112 125
e 112 127
e 112 142
e 112 168
e 112 172
e 112 175
e 112 183
e 113 115
e 113 119
e 113 146
e 113 159
e 113 160
e 113 178
e 113 191
e 113 193
e 114 131
e 114 141
e 114 142
e 114 153
e 114 161
e 114 182
e 114 197
e 115 118
e 115 132
e 115 148
e 115 149
e 115 150
e 115 155
e 115 169
e 115 174
e 115 185
e 116 145
e 116 154
e 116 183
e 116 190
e 116 197
e 117 134
e 117 166
e 117 179
e 118 119
e 118 145
e 118 149
e 118 185
e 119 122
e 119 127
e 119 178
e 120 121
e 120 132
e 120 134
e 120 137
e 120 164
e 120 167
e 120 169
e 120 173
e 121 124
e 121 135
e 121 194
e 122 139
e 122 142
e 122 145
e 122 147
e 122 162
e 122 163
e 122 166
e 122 167
e 122 189
e 122 192
e 123 128
e 123 136
e 123 170
e 123 185
e 123 189
e 123 192
e 123 196
e 124 142
e 124 148
e 124 150
e 125 139
e 125 140
e 126 136
e 126 182
e 126 189
e 126 192
e 127 151
e 127 158
e 127 172
e 127 174
e 127 181
e 127 187
e 127 197
e 127 199
e 128 174
e 128 178
e 128 181
e 128 184
e 129 131
e 129 139
e 129 157
e 129 161
e 129 170
e 129 196
e 130 148
e 130 154
e 130 162
e 130 171
e 130 172
e 130 175
e 130 183
e 130 184
e 130 188
e 131 188
e 132 145
e 132 195
e 133 176
e 134 141
e 134 155
e 134 158
e 134 159
e 134 180
e 134 184
e 134 186
e 134 199
e 135 137
e 135 142
e 135 144
e 135 176
e 135 178
e 135 191
e 136 154
e 136 171
e 137 144
e 137 167
e 137 172
e 137 185
e 137 186
e 137 189
e 138 142
e 138 157
e 139 197
e 139 198
e 140 146
e 140 164
e 140 193
e 140 194
e 141 148
e 141 153
e 141 177
e 142 157
e 142 169
e 142 175
e 143 144
e 143 157
e 143 160
e 143 170
e 143 178
e 143 182
e 144 168
e 146 177
e 146 189
e 148 157
e 148 170
e 148 172
e 148 179
e 148 183
e 148 190
e 149 156
e 149 162
e 149 181
e 149 183
e 150 158
e 150 160
e 150 162
e 150 166
e 150 174
e 151 154
e 151 159
e 151 178
e 151 196
e 152 164
e 152 192
e 152 195
e 152 199
e 153 178
e 154 168
e 154 190
e 155 191
e 156 161
e 156 165
e 156 194
e 157 164
e 157 180
e 157 186
e 157 189
e 157 197
e 159 171
e 159 182
e 159 188
e 159 198
e 160 188
e 161 173
e 161 174
e 161 192
e 162 166
e 162 187
e 163 167
e 163 170
e 163 179
e 163 190
e 164 184
e 165 175
e 165 177
e 165 190
e 165 193
e 165 197
e 166 170
e 166 177
e 166 179
e 167 168
e 167 181
e 170 191
e 170 197
e 170 198
e 171 183
e 172 173
e 174 180
e 174 198
e 176 180
e 177 193
e 178 186
e 179 183
e 179 199
e 180 188
e 181 184
e 181 199
e 182 192
e 183 188
e 183 197
e 187 198
e 188 199
e 191 198
e 192 196
